NAME : 20_2_07.35698.tour
COMMENT : Cost = 0_35698
COMMENT : Found by LKH [Keld Helsgaun] Thu Sep 14 11:07:25 2017
TYPE : TOUR
DIMENSION : 22
TOUR_SECTION
1
17
14
15
9
18
13
16
10
19
20
12
7
6
5
11
8
4
3
21
22
2
-1
EOF
